; Options: -q --produce-models --incremental --print-success --lang smt2.6
(declare-fun start!49324 () Bool)

(assert start!49324)

(declare-fun from1!7 () (_ BitVec 64))

(declare-fun from2!7 () (_ BitVec 64))

(declare-fun nBits!495 () (_ BitVec 64))

(assert (=> start!49324 (and (bvsge from1!7 #b0000000000000000000000000000000000000000000000000000000000000000) (bvsge from2!7 #b0000000000000000000000000000000000000000000000000000000000000000) (bvsge nBits!495 #b0000000000000000000000000000000000000000000000000000000000000000) (bvslt from2!7 (bvsub #b0111111111111111111111111111111111111111111111111111111111111111 nBits!495)) (not (= #b0000000000000000000000000000000000000000000000000000000000000000 (bvand nBits!495 #b1000000000000000000000000000000000000000000000000000000000000000))) (not (= #b0000000000000000000000000000000000000000000000000000000000000000 (bvand (bvsub #b0111111111111111111111111111111111111111111111111111111111111111 nBits!495) #b1000000000000000000000000000000000000000000000000000000000000000))))))

(assert (=> start!49324 true))

(push 1)

(check-sat)

